NAME : traveling-santa-2018-prime-paths.29915.tour
COMMENT : Length = 29915
COMMENT : Found by LKH [Keld Helsgaun] Sun Jun 12 19:59:56 2022
TYPE : TOUR
DIMENSION : 100
TOUR_SECTION
1
62
43
14
35
26
22
11
42
21
9
23
81
6
77
60
52
51
97
33
76
41
73
18
98
3
66
28
12
96
91
89
46
2
61
83
13
7
4
84
86
94
58
100
10
67
48
71
53
74
29
36
63
79
31
65
55
19
70
49
8
72
54
92
16
68
56
5
82
95
57
93
78
99
44
32
40
87
85
37
90
27
24
80
30
38
20
50
59
69
34
75
17
47
15
64
25
39
45
88
-1
EOF
